# Components (V)
1 2 3 4 5 6 7 8 9 10 11 12 13 14 15 16 17 18 19 20 21 22 23 24 25 26 27 28 29 30 31 32 33 34 35 36 37 38 39 40 41 42 43 44 45 46 47 48 49 50 51 52 53 54 55 56 57 58 59 60 61 62 63 64 65 66 67 68 69 70 71 72 73 74 75 76 77 78 79 80 81 82 83 84 85 86 87 88 89 90 91 92 93 94 95 96 97 98 99 100 101 102 103 104 105 106 107 108 109 110 111 112 113 114 115 116 117 118 119 120 121 122 123 124 125 126 127 128 129 130 131 132 133 134 135 136 137 138 139 140 141 142 143 144 145 146 147 148 149 150 151 152 153 154 155 156 157 158 159 160 161 162 163 164 165 166 167 168 169 170 171 172 173 174 175 176 177 178 179 180 181 182 183 184 185 186 187 188 189 190 191 192 193 194 195 196 197 198 199 200 201 202 203 204 205 206 207 208 209 210 211 212 213 214 215 216 217 218 219 220 221 222 223 224 225 226 227 228 229 230 231 232 233 234 235 236 237 238 239 240 241 242 243 244 245 246 247 248 249 250 251 252 253 254 255 256 257 258 259 260 261 262 263 264 265 266 267 268 269 270 271 272 273 274 275 276 277 278 279 280 281 282 283 284 285 286 287 288 289 290 291 292 293 294 295 296 297 298 299 300 301 302 303 304 305 306 307 308 309 310 311 312 313 314 315 316 317 318 319 320 321 322 323 324 325 326 327 328 329 330 331 332 333 334 335 336 337 338 339 340 341 342 343 344 345 346 347 348 349 350 351 352 353 354 355 356 357 358 359 360

# Precedence arcs (E)
1 14
2 16
3 15
3 331
4 19
5 333
6 17
6 21
9 18
10 20
10 23
11 22
14 24
15 25
16 26
17 28
17 30
17 55
18 31
18 33
19 27
21 34
22 347
23 29
23 32
24 35
25 36
26 39
27 37
27 38
27 40
28 113
29 42
29 46
33 41
33 47
34 43
34 44
34 45
34 48
35 49
36 55
37 51
38 52
39 54
40 53
41 50
41 55
41 63
42 55
43 56
43 154
44 57
45 59
45 62
45 253
46 60
47 58
47 61
49 70
50 65
51 66
52 68
53 64
54 69
55 67
55 77
56 76
57 73
59 78
59 189
59 331
60 71
60 79
61 72
61 75
63 74
64 80
65 86
66 82
67 81
68 87
69 83
70 88
71 85
72 84
72 96
72 114
72 327
73 94
74 97
75 95
76 89
76 91
77 92
78 90
79 93
80 102
81 100
82 106
83 108
84 98
84 101
84 103
84 104
84 107
85 99
86 114
87 112
87 115
88 105
89 349
91 110
92 289
93 109
93 113
96 111
98 116
99 118
100 119
101 120
102 129
103 122
104 123
105 124
106 121
107 125
108 126
109 117
109 127
109 128
110 133
110 135
112 136
113 132
113 138
113 139
114 130
114 131
114 314
115 134
115 137
116 151
117 140
118 141
119 152
120 153
121 142
122 154
123 143
124 145
125 147
126 148
127 149
128 150
129 248
130 144
130 156
131 146
131 155
131 158
131 161
133 160
133 249
136 354
138 157
139 159
139 201
140 169
141 162
142 167
143 163
144 164
145 165
146 166
147 168
148 171
149 172
150 169
151 169
152 174
152 177
154 170
156 175
156 180
157 173
157 179
157 197
158 176
158 178
159 294
162 181
163 183
164 184
165 187
166 185
167 186
168 188
170 182
170 191
170 193
172 190
173 349
174 192
174 199
175 194
178 195
178 197
178 198
178 200
179 189
179 201
180 196
180 307
181 205
182 202
183 203
184 209
185 210
186 211
187 204
188 206
190 215
190 216
191 219
193 208
193 213
193 214
193 269
195 217
195 220
196 207
196 212
197 208
200 218
202 228
203 223
204 225
205 224
206 226
207 221
208 222
208 232
212 230
212 231
213 295
217 227
217 229
219 234
220 233
220 235
220 294
221 236
222 239
223 244
224 237
225 245
226 238
226 241
226 242
226 248
226 252
227 240
229 243
229 247
230 246
230 316
231 253
232 249
233 250
233 251
234 254
234 351
236 256
237 255
238 258
239 259
240 260
241 261
242 263
243 265
244 268
245 267
246 266
247 257
247 270
248 262
248 269
248 271
249 264
249 348
250 272
250 291
254 350
255 273
256 274
257 276
258 278
259 286
260 277
261 282
262 279
263 280
264 281
265 288
266 284
267 275
267 283
267 294
267 295
268 292
269 289
269 296
270 290
270 293
271 287
271 291
271 292
272 285
273 305
274 297
275 298
276 299
277 307
278 302
279 308
280 305
281 305
282 303
283 304
284 311
285 300
287 301
290 317
291 315
291 316
293 310
293 312
294 306
294 309
295 314
296 313
297 318
298 327
299 328
300 320
301 321
302 329
303 324
304 325
305 326
305 330
306 319
306 334
307 343
307 347
309 322
310 323
310 331
313 333
315 332
318 337
319 335
320 339
321 342
322 336
323 338
324 346
325 340
326 341
327 343
329 351
330 344
330 345
330 347
330 349
330 355
331 350
331 354
332 348
333 352
334 353
340 360
342 356
343 357
344 358
345 359

# Target components (T)
31

# Revenues (r)
1 21
2 29
3 22
4 29
5 26
6 23
7 23
8 21
9 22
10 23
11 28
12 21
13 22
14 22
15 29
16 26
17 28
18 21
19 20
20 28
21 29
22 22
23 20
24 29
25 30
26 24
27 21
28 25
29 26
30 21
31 22
32 24
33 25
34 24
35 25
36 21
37 22
38 26
39 28
40 30
41 23
42 22
43 27
44 28
45 20
46 25
47 26
48 30
49 26
50 26
51 27
52 22
53 25
54 20
55 28
56 20
57 23
58 27
59 28
60 30
61 27
62 28
63 23
64 21
65 28
66 28
67 26
68 22
69 23
70 28
71 22
72 28
73 30
74 29
75 21
76 27
77 22
78 21
79 21
80 30
81 28
82 20
83 22
84 20
85 24
86 26
87 27
88 29
89 28
90 30
91 26
92 23
93 26
94 20
95 26
96 26
97 21
98 22
99 24
100 30
101 29
102 21
103 24
104 26
105 25
106 21
107 20
108 21
109 23
110 30
111 28
112 24
113 27
114 27
115 30
116 30
117 20
118 28
119 26
120 20
121 26
122 20
123 22
124 24
125 30
126 30
127 23
128 20
129 24
130 22
131 20
132 21
133 28
134 25
135 28
136 29
137 27
138 21
139 30
140 27
141 22
142 28
143 26
144 29
145 24
146 28
147 21
148 30
149 27
150 27
151 25
152 21
153 24
154 27
155 25
156 24
157 23
158 26
159 23
160 25
161 25
162 30
163 23
164 25
165 30
166 29
167 29
168 23
169 23
170 27
171 24
172 25
173 23
174 20
175 26
176 26
177 28
178 27
179 25
180 30
181 27
182 28
183 29
184 25
185 21
186 23
187 24
188 30
189 30
190 30
191 25
192 24
193 24
194 27
195 20
196 24
197 27
198 24
199 20
200 29
201 30
202 23
203 25
204 25
205 28
206 21
207 24
208 29
209 26
210 22
211 27
212 28
213 24
214 21
215 21
216 30
217 26
218 29
219 22
220 22
221 29
222 22
223 28
224 27
225 20
226 20
227 25
228 29
229 27
230 24
231 25
232 20
233 24
234 26
235 30
236 23
237 20
238 25
239 29
240 24
241 30
242 25
243 22
244 20
245 28
246 20
247 22
248 22
249 29
250 28
251 25
252 21
253 20
254 25
255 24
256 22
257 20
258 30
259 28
260 28
261 26
262 27
263 25
264 28
265 21
266 20
267 30
268 28
269 20
270 29
271 29
272 29
273 29
274 22
275 20
276 24
277 20
278 29
279 25
280 20
281 22
282 28
283 21
284 22
285 20
286 30
287 20
288 29
289 23
290 25
291 28
292 28
293 22
294 28
295 30
296 27
297 23
298 22
299 24
300 24
301 24
302 30
303 23
304 24
305 24
306 29
307 20
308 29
309 24
310 28
311 20
312 23
313 28
314 30
315 20
316 22
317 23
318 27
319 22
320 27
321 29
322 28
323 30
324 23
325 22
326 23
327 29
328 23
329 30
330 29
331 23
332 26
333 30
334 20
335 20
336 27
337 23
338 21
339 30
340 24
341 25
342 26
343 26
344 20
345 27
346 30
347 27
348 30
349 25
350 23
351 27
352 22
353 27
354 25
355 30
356 22
357 21
358 21
359 26
360 26

# Costs (c)
1 2
2 5
3 1
4 5
5 8
6 2
7 9
8 8
9 6
10 2
11 4
12 10
13 4
14 10
15 1
16 5
17 8
18 3
19 5
20 8
21 6
22 9
23 10
24 4
25 1
26 5
27 8
28 7
29 1
30 7
31 7
32 3
33 10
34 2
35 4
36 8
37 7
38 6
39 2
40 1
41 9
42 9
43 6
44 1
45 4
46 1
47 7
48 9
49 1
50 3
51 2
52 2
53 6
54 2
55 6
56 2
57 10
58 4
59 6
60 5
61 5
62 7
63 1
64 8
65 6
66 7
67 9
68 5
69 4
70 3
71 10
72 5
73 9
74 2
75 4
76 7
77 3
78 6
79 2
80 3
81 7
82 1
83 10
84 6
85 9
86 3
87 10
88 4
89 2
90 6
91 8
92 2
93 1
94 7
95 9
96 7
97 9
98 8
99 7
100 6
101 5
102 2
103 9
104 5
105 1
106 9
107 7
108 4
109 8
110 4
111 10
112 3
113 8
114 5
115 3
116 1
117 6
118 9
119 6
120 4
121 1
122 9
123 1
124 7
125 1
126 1
127 10
128 4
129 2
130 7
131 9
132 1
133 9
134 8
135 2
136 8
137 6
138 4
139 1
140 6
141 6
142 9
143 2
144 9
145 7
146 5
147 5
148 2
149 7
150 4
151 9
152 8
153 7
154 5
155 7
156 7
157 6
158 5
159 5
160 9
161 4
162 6
163 8
164 7
165 7
166 8
167 3
168 5
169 1
170 2
171 8
172 5
173 4
174 7
175 1
176 4
177 6
178 6
179 1
180 10
181 6
182 7
183 1
184 4
185 9
186 6
187 9
188 8
189 4
190 9
191 3
192 1
193 6
194 1
195 9
196 4
197 7
198 5
199 1
200 9
201 1
202 5
203 1
204 8
205 6
206 9
207 3
208 5
209 9
210 5
211 6
212 4
213 1
214 3
215 1
216 2
217 7
218 2
219 5
220 5
221 7
222 1
223 5
224 4
225 4
226 6
227 3
228 10
229 3
230 4
231 7
232 4
233 9
234 6
235 4
236 9
237 5
238 7
239 5
240 3
241 10
242 5
243 2
244 3
245 10
246 4
247 3
248 6
249 9
250 7
251 9
252 7
253 10
254 6
255 5
256 3
257 2
258 10
259 9
260 10
261 3
262 10
263 9
264 7
265 2
266 1
267 4
268 8
269 8
270 3
271 9
272 2
273 4
274 2
275 9
276 8
277 2
278 3
279 6
280 3
281 9
282 1
283 7
284 6
285 2
286 3
287 6
288 2
289 9
290 10
291 5
292 8
293 7
294 8
295 5
296 5
297 3
298 9
299 10
300 2
301 2
302 2
303 4
304 6
305 10
306 10
307 8
308 7
309 6
310 1
311 10
312 5
313 8
314 7
315 10
316 8
317 8
318 10
319 10
320 7
321 1
322 5
323 9
324 9
325 4
326 4
327 7
328 7
329 6
330 8
331 10
332 5
333 10
334 5
335 8
336 3
337 9
338 2
339 4
340 7
341 3
342 10
343 10
344 1
345 3
346 2
347 9
348 3
349 1
350 5
351 3
352 9
353 9
354 2
355 4
356 9
357 4
358 2
359 4
360 7

# Durations (p)
1 467
2 469
3 169
4 320
5 489
6 315
7 219
8 79
9 49
10 308
11 303
12 46
13 22
14 295
15 542
16 272
17 162
18 87
19 477
20 139
21 314
22 36
23 65
24 28
25 206
26 492
27 452
28 156
29 93
30 98
31 557
32 66
33 146
34 136
35 170
36 173
37 168
38 541
39 577
40 129
41 456
42 33
43 111
44 108
45 210
46 191
47 109
48 138
49 268
50 125
51 471
52 454
53 191
54 497
55 130
56 440
57 561
58 549
59 44
60 261
61 356
62 306
63 358
64 234
65 170
66 232
67 54
68 183
69 473
70 165
71 549
72 191
73 556
74 215
75 250
76 107
77 451
78 570
79 115
80 87
81 457
82 26
83 115
84 509
85 542
86 53
87 120
88 28
89 87
90 137
91 98
92 551
93 185
94 226
95 35
96 437
97 112
98 258
99 30
100 234
101 467
102 524
103 328
104 243
105 110
106 257
107 92
108 68
109 112
110 137
111 169
112 66
113 23
114 252
115 364
116 411
117 267
118 276
119 448
120 439
121 191
122 487
123 36
124 170
125 457
126 107
127 116
128 189
129 112
130 202
131 92
132 187
133 118
134 181
135 412
136 298
137 234
138 155
139 40
140 349
141 300
142 339
143 415
144 58
145 26
146 155
147 531
148 87
149 224
150 198
151 41
152 137
153 40
154 36
155 136
156 468
157 33
158 241
159 159
160 106
161 123
162 436
163 195
164 171
165 76
166 244
167 220
168 480
169 110
170 86
171 82
172 251
173 279
174 526
175 109
176 558
177 223
178 54
179 104
180 161
181 537
182 242
183 287
184 163
185 168
186 95
187 67
188 543
189 27
190 102
191 115
192 54
193 503
194 95
195 487
196 262
197 114
198 239
199 83
200 216
201 113
202 493
203 103
204 580
205 234
206 275
207 91
208 35
209 537
210 484
211 119
212 568
213 61
214 199
215 254
216 85
217 145
218 53
219 95
220 242
221 100
222 138
223 24
224 269
225 229
226 231
227 51
228 212
229 492
230 141
231 24
232 278
233 541
234 112
235 110
236 196
237 208
238 165
239 204
240 346
241 75
242 107
243 289
244 188
245 222
246 91
247 80
248 102
249 347
250 538
251 303
252 130
253 227
254 83
255 208
256 379
257 135
258 66
259 107
260 137
261 225
262 108
263 256
264 453
265 529
266 247
267 175
268 226
269 402
270 71
271 342
272 356
273 34
274 112
275 347
276 293
277 82
278 150
279 542
280 132
281 434
282 151
283 153
284 531
285 146
286 97
287 136
288 543
289 75
290 138
291 484
292 221
293 338
294 254
295 209
296 142
297 304
298 100
299 29
300 82
301 63
302 289
303 147
304 79
305 192
306 85
307 305
308 176
309 66
310 175
311 285
312 460
313 202
314 473
315 146
316 60
317 120
318 150
319 119
320 187
321 96
322 395
323 138
324 100
325 252
326 439
327 177
328 165
329 118
330 420
331 517
332 323
333 541
334 476
335 520
336 104
337 94
338 93
339 231
340 248
341 164
342 375
343 304
344 224
345 427
346 322
347 156
348 190
349 243
350 111
351 88
352 71
353 487
354 81
355 234
356 129
357 375
358 71
359 566
360 144

orderrules
1 14 au000 avant au013
2 16 au001 avant au015
3 15 au002 avant au014
3 331 au002 avant au330
4 19 au003 avant au018
5 333 au004 avant au332
6 17 au005 avant au016
6 21 au005 avant au020
9 18 au008 avant au017
10 20 au009 avant au019
10 23 au009 avant au022
11 22 au010 avant au021
14 24 au013 avant au023
15 25 au014 avant au024
16 26 au015 avant au025
17 28 au016 avant au027
17 30 au016 avant au029
17 55 au016 avant au054
18 31 au017 avant au030
18 33 au017 avant au032
19 27 au018 avant au026
21 34 au020 avant au033
22 347 au021 avant au346
23 29 au022 avant au028
23 32 au022 avant au031
24 35 au023 avant au034
25 36 au024 avant au035
26 39 au025 avant au038
27 37 au026 avant au036
27 38 au026 avant au037
27 40 au026 avant au039
28 113 au027 avant au112
29 42 au028 avant au041
29 46 au028 avant au045
33 41 au032 avant au040
33 47 au032 avant au046
34 43 au033 avant au042
34 44 au033 avant au043
34 45 au033 avant au044
34 48 au033 avant au047
35 49 au034 avant au048
36 55 au035 avant au054
37 51 au036 avant au050
38 52 au037 avant au051
39 54 au038 avant au053
40 53 au039 avant au052
41 50 au040 avant au049
41 55 au040 avant au054
41 63 au040 avant au062
42 55 au041 avant au054
43 56 au042 avant au055
43 154 au042 avant au153
44 57 au043 avant au056
45 59 au044 avant au058
45 62 au044 avant au061
45 253 au044 avant au252
46 60 au045 avant au059
47 58 au046 avant au057
47 61 au046 avant au060
49 70 au048 avant au069
50 65 au049 avant au064
51 66 au050 avant au065
52 68 au051 avant au067
53 64 au052 avant au063
54 69 au053 avant au068
55 67 au054 avant au066
55 77 au054 avant au076
56 76 au055 avant au075
57 73 au056 avant au072
59 78 au058 avant au077
59 189 au058 avant au188
59 331 au058 avant au330
60 71 au059 avant au070
60 79 au059 avant au078
61 72 au060 avant au071
61 75 au060 avant au074
63 74 au062 avant au073
64 80 au063 avant au079
65 86 au064 avant au085
66 82 au065 avant au081
67 81 au066 avant au080
68 87 au067 avant au086
69 83 au068 avant au082
70 88 au069 avant au087
71 85 au070 avant au084
72 84 au071 avant au083
72 96 au071 avant au095
72 114 au071 avant au113
72 327 au071 avant au326
73 94 au072 avant au093
74 97 au073 avant au096
75 95 au074 avant au094
76 89 au075 avant au088
76 91 au075 avant au090
77 92 au076 avant au091
78 90 au077 avant au089
79 93 au078 avant au092
80 102 au079 avant au101
81 100 au080 avant au099
82 106 au081 avant au105
83 108 au082 avant au107
84 98 au083 avant au097
84 101 au083 avant au100
84 103 au083 avant au102
84 104 au083 avant au103
84 107 au083 avant au106
85 99 au084 avant au098
86 114 au085 avant au113
87 112 au086 avant au111
87 115 au086 avant au114
88 105 au087 avant au104
89 349 au088 avant au348
91 110 au090 avant au109
92 289 au091 avant au288
93 109 au092 avant au108
93 113 au092 avant au112
96 111 au095 avant au110
98 116 au097 avant au115
99 118 au098 avant au117
100 119 au099 avant au118
101 120 au100 avant au119
102 129 au101 avant au128
103 122 au102 avant au121
104 123 au103 avant au122
105 124 au104 avant au123
106 121 au105 avant au120
107 125 au106 avant au124
108 126 au107 avant au125
109 117 au108 avant au116
109 127 au108 avant au126
109 128 au108 avant au127
110 133 au109 avant au132
110 135 au109 avant au134
112 136 au111 avant au135
113 132 au112 avant au131
113 138 au112 avant au137
113 139 au112 avant au138
114 130 au113 avant au129
114 131 au113 avant au130
114 314 au113 avant au313
115 134 au114 avant au133
115 137 au114 avant au136
116 151 au115 avant au150
117 140 au116 avant au139
118 141 au117 avant au140
119 152 au118 avant au151
120 153 au119 avant au152
121 142 au120 avant au141
122 154 au121 avant au153
123 143 au122 avant au142
124 145 au123 avant au144
125 147 au124 avant au146
126 148 au125 avant au147
127 149 au126 avant au148
128 150 au127 avant au149
129 248 au128 avant au247
130 144 au129 avant au143
130 156 au129 avant au155
131 146 au130 avant au145
131 155 au130 avant au154
131 158 au130 avant au157
131 161 au130 avant au160
133 160 au132 avant au159
133 249 au132 avant au248
136 354 au135 avant au353
138 157 au137 avant au156
139 159 au138 avant au158
139 201 au138 avant au200
140 169 au139 avant au168
141 162 au140 avant au161
142 167 au141 avant au166
143 163 au142 avant au162
144 164 au143 avant au163
145 165 au144 avant au164
146 166 au145 avant au165
147 168 au146 avant au167
148 171 au147 avant au170
149 172 au148 avant au171
150 169 au149 avant au168
151 169 au150 avant au168
152 174 au151 avant au173
152 177 au151 avant au176
154 170 au153 avant au169
156 175 au155 avant au174
156 180 au155 avant au179
157 173 au156 avant au172
157 179 au156 avant au178
157 197 au156 avant au196
158 176 au157 avant au175
158 178 au157 avant au177
159 294 au158 avant au293
162 181 au161 avant au180
163 183 au162 avant au182
164 184 au163 avant au183
165 187 au164 avant au186
166 185 au165 avant au184
167 186 au166 avant au185
168 188 au167 avant au187
170 182 au169 avant au181
170 191 au169 avant au190
170 193 au169 avant au192
172 190 au171 avant au189
173 349 au172 avant au348
174 192 au173 avant au191
174 199 au173 avant au198
175 194 au174 avant au193
178 195 au177 avant au194
178 197 au177 avant au196
178 198 au177 avant au197
178 200 au177 avant au199
179 189 au178 avant au188
179 201 au178 avant au200
180 196 au179 avant au195
180 307 au179 avant au306
181 205 au180 avant au204
182 202 au181 avant au201
183 203 au182 avant au202
184 209 au183 avant au208
185 210 au184 avant au209
186 211 au185 avant au210
187 204 au186 avant au203
188 206 au187 avant au205
190 215 au189 avant au214
190 216 au189 avant au215
191 219 au190 avant au218
193 208 au192 avant au207
193 213 au192 avant au212
193 214 au192 avant au213
193 269 au192 avant au268
195 217 au194 avant au216
195 220 au194 avant au219
196 207 au195 avant au206
196 212 au195 avant au211
197 208 au196 avant au207
200 218 au199 avant au217
202 228 au201 avant au227
203 223 au202 avant au222
204 225 au203 avant au224
205 224 au204 avant au223
206 226 au205 avant au225
207 221 au206 avant au220
208 222 au207 avant au221
208 232 au207 avant au231
212 230 au211 avant au229
212 231 au211 avant au230
213 295 au212 avant au294
217 227 au216 avant au226
217 229 au216 avant au228
219 234 au218 avant au233
220 233 au219 avant au232
220 235 au219 avant au234
220 294 au219 avant au293
221 236 au220 avant au235
222 239 au221 avant au238
223 244 au222 avant au243
224 237 au223 avant au236
225 245 au224 avant au244
226 238 au225 avant au237
226 241 au225 avant au240
226 242 au225 avant au241
226 248 au225 avant au247
226 252 au225 avant au251
227 240 au226 avant au239
229 243 au228 avant au242
229 247 au228 avant au246
230 246 au229 avant au245
230 316 au229 avant au315
231 253 au230 avant au252
232 249 au231 avant au248
233 250 au232 avant au249
233 251 au232 avant au250
234 254 au233 avant au253
234 351 au233 avant au350
236 256 au235 avant au255
237 255 au236 avant au254
238 258 au237 avant au257
239 259 au238 avant au258
240 260 au239 avant au259
241 261 au240 avant au260
242 263 au241 avant au262
243 265 au242 avant au264
244 268 au243 avant au267
245 267 au244 avant au266
246 266 au245 avant au265
247 257 au246 avant au256
247 270 au246 avant au269
248 262 au247 avant au261
248 269 au247 avant au268
248 271 au247 avant au270
249 264 au248 avant au263
249 348 au248 avant au347
250 272 au249 avant au271
250 291 au249 avant au290
254 350 au253 avant au349
255 273 au254 avant au272
256 274 au255 avant au273
257 276 au256 avant au275
258 278 au257 avant au277
259 286 au258 avant au285
260 277 au259 avant au276
261 282 au260 avant au281
262 279 au261 avant au278
263 280 au262 avant au279
264 281 au263 avant au280
265 288 au264 avant au287
266 284 au265 avant au283
267 275 au266 avant au274
267 283 au266 avant au282
267 294 au266 avant au293
267 295 au266 avant au294
268 292 au267 avant au291
269 289 au268 avant au288
269 296 au268 avant au295
270 290 au269 avant au289
270 293 au269 avant au292
271 287 au270 avant au286
271 291 au270 avant au290
271 292 au270 avant au291
272 285 au271 avant au284
273 305 au272 avant au304
274 297 au273 avant au296
275 298 au274 avant au297
276 299 au275 avant au298
277 307 au276 avant au306
278 302 au277 avant au301
279 308 au278 avant au307
280 305 au279 avant au304
281 305 au280 avant au304
282 303 au281 avant au302
283 304 au282 avant au303
284 311 au283 avant au310
285 300 au284 avant au299
287 301 au286 avant au300
290 317 au289 avant au316
291 315 au290 avant au314
291 316 au290 avant au315
293 310 au292 avant au309
293 312 au292 avant au311
294 306 au293 avant au305
294 309 au293 avant au308
295 314 au294 avant au313
296 313 au295 avant au312
297 318 au296 avant au317
298 327 au297 avant au326
299 328 au298 avant au327
300 320 au299 avant au319
301 321 au300 avant au320
302 329 au301 avant au328
303 324 au302 avant au323
304 325 au303 avant au324
305 326 au304 avant au325
305 330 au304 avant au329
306 319 au305 avant au318
306 334 au305 avant au333
307 343 au306 avant au342
307 347 au306 avant au346
309 322 au308 avant au321
310 323 au309 avant au322
310 331 au309 avant au330
313 333 au312 avant au332
315 332 au314 avant au331
318 337 au317 avant au336
319 335 au318 avant au334
320 339 au319 avant au338
321 342 au320 avant au341
322 336 au321 avant au335
323 338 au322 avant au337
324 346 au323 avant au345
325 340 au324 avant au339
326 341 au325 avant au340
327 343 au326 avant au342
329 351 au328 avant au350
330 344 au329 avant au343
330 345 au329 avant au344
330 347 au329 avant au346
330 349 au329 avant au348
330 355 au329 avant au354
331 350 au330 avant au349
331 354 au330 avant au353
332 348 au331 avant au347
333 352 au332 avant au351
334 353 au333 avant au352
340 360 au339 avant au359
342 356 au341 avant au355
343 357 au342 avant au356
344 358 au343 avant au357
345 359 au344 avant au358
